NAME : traveling-santa-2018-prime-paths.30036.tour
COMMENT : Length = 30036
COMMENT : Found by LKH [Keld Helsgaun] Sun Jun 12 19:59:49 2022
TYPE : TOUR
DIMENSION : 100
TOUR_SECTION
1
44
48
42
100
19
70
73
81
77
17
90
64
2
96
20
43
66
5
93
7
57
83
10
40
87
26
3
9
37
38
12
4
27
60
55
69
46
53
8
51
29
15
88
34
68
14
86
25
21
41
24
18
82
45
35
99
16
98
36
91
65
47
92
74
23
13
31
89
30
78
94
52
49
6
58
80
39
97
84
22
54
85
32
72
76
75
79
67
33
50
63
56
95
61
62
11
28
59
71
-1
EOF
